
Gurobi 13.0.0 (linux64) logging started Thu Jan 15 07:55:01 2026

Set parameter LogFile to value "../experiments/network-n_50_s_1_rp_0-app_set-id_36_17_apps/submip_40_epr1_model_gurobi.log"
Set parameter TimeLimit to value 8.3707962240300549e+02
Gurobi Optimizer version 13.0.0 build v13.0.0rc1 (linux64 - "Ubuntu 24.04.3 LTS")

CPU model: Intel(R) Core(TM) Ultra 7 165H, instruction set [SSE2|AVX|AVX2]
Thread count: 22 physical cores, 22 logical processors, using up to 22 threads

Non-default parameters:
TimeLimit  8.3707962240300549e+02
LogToConsole  0

Academic license 2539022 - for non-commercial use only - registered to al___@studenti.unimi.it
Optimize a model with 27540 rows, 5500 columns and 62788 nonzeros (Min)
Model fingerprint: 0xc88723d2
Model has 5500 linear objective coefficients
Model has 164 quadratic constraints
Variable types: 0 continuous, 5500 integer (5500 binary)
Coefficient statistics:
  Matrix range     [1e+00, 9e+02]
  QMatrix range    [5e+01, 2e+02]
  Objective range  [1e+01, 2e+02]
  Bounds range     [1e+00, 1e+00]
  RHS range        [1e+00, 1e+09]
  QRHS range       [1e+02, 6e+02]

MIP start from previous solve did not produce a new incumbent solution
MIP start from previous solve violates constraint fixed_app_0_microservice_1 by 1.000000000

Presolve removed 27110 rows and 4455 columns
Presolve time: 0.07s
Presolved: 8011 rows, 8471 columns, 50636 nonzeros
Variable types: 0 continuous, 8471 integer (8471 binary)

Root relaxation: objective 4.049196e+03, 1024 iterations, 0.05 seconds (0.10 work units)

    Nodes    |    Current Node    |     Objective Bounds      |     Work
 Expl Unexpl |  Obj  Depth IntInf | Incumbent    BestBd   Gap | It/Node Time

     0     0 4049.19644    0  126          - 4049.19644      -     -    0s
     0     0 4295.63749    0  123          - 4295.63749      -     -    0s
     0     0 4386.77428    0  139          - 4386.77428      -     -    0s
     0     0 4392.92426    0  144          - 4392.92426      -     -    1s
     0     0 4400.00382    0  154          - 4400.00382      -     -    1s
     0     0 4401.39276    0  138          - 4401.39276      -     -    1s
     0     0 infeasible    0               - infeasible      -     -    1s

Cutting planes:
  Gomory: 2
  Lift-and-project: 10
  Cover: 33
  Clique: 15
  MIR: 21
  Knapsack: 6
  StrongCG: 20
  GUB cover: 7
  Zero half: 21
  RLT: 59
  Relax-and-lift: 22
  BQP: 29

Explored 1 nodes (3327 simplex iterations) in 1.36 seconds (1.30 work units)
Thread count was 22 (of 22 available processors)

Solution count 0

Model is infeasible
Best objective -, best bound -, gap -

User-callback calls 819, time in user-callback 0.00 sec
